data;


param d:= 100;
param r:=5;
param p:=0.780000;
param M:=1000;
param U:=
         1         1       -1.923619e-01
         2         1        8.205114e-01
         3         1       -4.700183e-01
         4         1       -9.697684e-01
         5         1       -8.719651e-01
         6         1       -4.466214e-01
         7         1        2.966467e-01
         8         1       -8.030854e-01
         9         1        1.914660e-01
        10         1        1.350057e-01
        11         1       -5.632632e-01
        12         1        4.010494e-01
        13         1       -1.608222e+00
        14         1       -4.568493e-01
        15         1       -7.527268e-01
        16         1        5.183413e-01
        17         1        4.824297e-01
        18         1        8.262717e-01
        19         1        6.923945e-01
        20         1        7.156619e-01
        21         1       -6.199476e-01
        22         1        6.197285e-01
        23         1       -6.728278e-01
        24         1        5.524225e-02
        25         1        2.184020e+00
        26         1       -6.336280e-01
        27         1       -1.646281e+00
        28         1       -5.777938e-01
        29         1        1.389735e+00
        30         1       -7.074946e-01
        31         1        1.419757e+00
        32         1        1.614190e+00
        33         1        5.374710e-01
        34         1        6.578473e-01
        35         1       -2.696852e-01
        36         1       -6.718712e-01
        37         1       -1.816079e+00
        38         1       -1.753831e-01
        39         1        2.029352e+00
        40         1       -1.803585e+00
        41         1       -5.633890e-01
        42         1        1.083232e+00
        43         1        1.307741e+00
        44         1        5.691137e-01
        45         1       -9.539576e-01
        46         1       -4.245668e-02
        47         1       -1.365644e+00
        48         1       -1.809992e+00
        49         1        3.011479e-02
        50         1        9.399541e-02
        51         1        6.260401e-02
        52         1        1.908875e+00
        53         1        2.827284e-01
        54         1        6.888905e-02
        55         1        1.965992e+00
        56         1        5.311301e-01
        57         1       -4.646061e-01
        58         1       -1.613064e+00
        59         1        7.021270e-02
        60         1       -1.990672e+00
        61         1       -5.999198e-01
        62         1       -3.014108e-01
        63         1       -9.069132e-01
        64         1       -2.163042e-01
        65         1       -1.534192e+00
        66         1       -1.090194e+00
        67         1        1.161326e+00
        68         1        7.425515e-01
        69         1       -1.421949e-01
        70         1       -1.822617e+00
        71         1       -7.948294e-02
        72         1        5.302821e-01
        73         1        1.082108e+00
        74         1        1.010245e+00
        75         1       -6.052892e-02
        76         1       -9.442336e-01
        77         1        1.305321e+00
        78         1       -6.336119e-01
        79         1        4.023837e-01
        80         1       -1.356001e+00
        81         1        2.672445e-01
        82         1        1.908817e-01
        83         1        4.813808e-01
        84         1       -4.150025e-01
        85         1       -9.111308e-01
        86         1        1.897606e-01
        87         1       -5.976250e-01
        88         1       -7.213489e-01
        89         1        4.643487e-01
        90         1       -2.335144e-01
        91         1        6.262411e-01
        92         1       -2.008570e+00
        93         1       -1.603278e+00
        94         1        2.229025e+00
        95         1        8.053324e-02
        96         1       -9.068381e-01
        97         1       -2.124984e+00
        98         1        2.309018e-01
        99         1       -5.038023e-02
       100         1       -1.531951e+00
         1         2        1.044553e+00
         2         2       -5.817586e-01
         3         2        8.539591e-02
         4         2        2.383380e-01
         5         2        5.496525e-01
         6         2       -8.456792e-02
         7         2        1.152618e+00
         8         2       -9.619999e-01
         9         2       -5.029440e-01
        10         2        2.301871e-01
        11         2       -7.942158e-01
        12         2        1.797658e+00
        13         2        1.177324e+00
        14         2        2.822092e-01
        15         2        4.846873e-01
        16         2       -1.701269e+00
        17         2       -4.520810e-01
        18         2        2.366016e+00
        19         2       -5.939628e-01
        20         2       -4.961576e-02
        21         2        3.884346e-01
        22         2        1.357685e+00
        23         2       -1.339841e+00
        24         2       -1.307206e+00
        25         2       -1.112353e+00
        26         2       -7.191332e-01
        27         2        5.887222e-01
        28         2       -6.389853e-01
        29         2        1.342636e+00
        30         2       -5.461442e-01
        31         2       -3.553865e-01
        32         2        1.406216e+00
        33         2       -1.434465e+00
        34         2        1.850301e-01
        35         2        2.626581e+00
        36         2        1.251982e+00
        37         2       -1.347383e+00
        38         2        6.223612e-02
        39         2       -8.077459e-01
        40         2       -5.864820e-01
        41         2       -2.218897e-01
        42         2       -1.239040e+00
        43         2        1.411592e+00
        44         2       -1.241016e+00
        45         2       -2.541452e-01
        46         2       -1.073652e-01
        47         2        6.085786e-01
        48         2       -6.520123e-01
        49         2       -1.085190e+00
        50         2        1.028578e+00
        51         2       -6.459750e-01
        52         2       -9.008182e-01
        53         2       -5.200659e-01
        54         2        5.366436e-01
        55         2        3.954411e-01
        56         2        6.682534e-01
        57         2        2.356568e-02
        58         2       -1.803684e+00
        59         2        1.039041e+00
        60         2       -1.151320e+00
        61         2       -1.099762e+00
        62         2        8.546471e-03
        63         2        7.541579e-01
        64         2        2.634052e-01
        65         2        2.523383e-01
        66         2        6.051380e-01
        67         2       -1.456762e+00
        68         2        5.365899e-02
        69         2       -8.739152e-02
        70         2        7.404074e-02
        71         2        1.109380e+00
        72         2       -1.067624e-01
        73         2        2.412840e-01
        74         2        7.322899e-01
        75         2        1.469421e+00
        76         2       -6.401322e-01
        77         2       -1.076779e+00
        78         2        1.166307e+00
        79         2       -4.993513e-01
        80         2       -1.194988e-01
        81         2       -1.264060e+00
        82         2       -1.387375e-01
        83         2        8.577555e-01
        84         2       -1.201861e-01
        85         2       -6.711038e-01
        86         2        6.006008e-01
        87         2        9.604410e-02
        88         2       -7.850933e-01
        89         2        6.281085e-01
        90         2        2.590276e-02
        91         2       -5.336830e-01
        92         2       -1.593217e-01
        93         2        1.118131e+00
        94         2        3.463355e-01
        95         2        6.363332e-01
        96         2        2.639960e+00
        97         2        4.421970e-01
        98         2       -1.275629e+00
        99         2       -4.194261e-01
       100         2        7.513533e-01
         1         3        7.928947e-01
         2         3       -2.495071e+00
         3         3       -2.941381e+00
         4         3        3.081762e-01
         5         3       -9.092463e-01
         6         3       -8.181198e-01
         7         3        2.536937e-02
         8         3        6.828114e-01
         9         3        1.451681e+00
        10         3       -3.619057e-01
        11         3        3.901077e-01
        12         3        4.088004e-01
        13         3        1.355987e+00
        14         3        2.938601e-01
        15         3       -1.572330e+00
        16         3        3.966706e-01
        17         3       -3.878387e-02
        18         3        5.283891e-01
        19         3       -2.177989e-02
        20         3       -9.369752e-01
        21         3        5.487293e-01
        22         3        1.858341e-01
        23         3       -8.796068e-01
        24         3        1.321241e+00
        25         3       -1.022931e+00
        26         3       -4.220921e-01
        27         3        4.941907e-01
        28         3       -4.266455e-01
        29         3       -3.086791e-01
        30         3        2.032740e-02
        31         3        1.262803e+00
        32         3       -3.405030e-01
        33         3        3.018182e-01
        34         3       -8.663965e-01
        35         3        2.420302e-01
        36         3        1.970853e+00
        37         3        9.250008e-02
        38         3       -4.445153e-01
        39         3        2.073554e-01
        40         3        1.591685e-02
        41         3       -8.639923e-01
        42         3       -2.178649e-01
        43         3       -2.246777e+00
        44         3       -1.343626e+00
        45         3       -1.394899e+00
        46         3       -8.018022e-01
        47         3       -6.417739e-01
        48         3       -6.063650e-01
        49         3       -2.411987e+00
        50         3        2.004576e+00
        51         3        1.421336e+00
        52         3        5.545066e-01
        53         3       -4.271353e-01
        54         3       -1.581465e-02
        55         3       -1.544380e+00
        56         3       -1.056855e+00
        57         3       -5.078747e-01
        58         3       -6.625841e-01
        59         3        2.019793e-02
        60         3       -1.196634e+00
        61         3        1.020254e+00
        62         3       -1.673517e-01
        63         3       -6.117409e-01
        64         3        1.055703e+00
        65         3       -2.830221e+00
        66         3       -5.675020e-01
        67         3        5.626292e-01
        68         3       -1.587474e+00
        69         3        1.241866e+00
        70         3        1.395162e-01
        71         3        2.310162e+00
        72         3       -2.961402e-01
        73         3       -1.973838e-01
        74         3       -3.372584e-01
        75         3       -4.410840e-01
        76         3        2.412770e-01
        77         3        4.147419e-01
        78         3        1.378374e-01
        79         3       -9.789028e-01
        80         3        1.909114e+00
        81         3        4.289872e-01
        82         3       -3.087512e-01
        83         3       -7.611632e-01
        84         3        2.694751e+00
        85         3       -8.058244e-01
        86         3       -1.063395e+00
        87         3        1.084415e-01
        88         3        1.216444e+00
        89         3       -1.101219e+00
        90         3       -1.058012e-01
        91         3        1.374405e-01
        92         3        1.910418e-01
        93         3       -2.261860e-01
        94         3        2.973080e-01
        95         3        1.225423e-01
        96         3       -8.888359e-01
        97         3        9.406697e-01
        98         3        1.512710e+00
        99         3       -9.522605e-01
       100         3       -1.237719e+00
         1         4        1.061419e+00
         2         4        1.213582e+00
         3         4        1.795288e+00
         4         4        2.251678e+00
         5         4        1.055641e+00
         6         4        3.341457e-01
         7         4        1.164625e+00
         8         4        3.227903e-01
         9         4       -9.827365e-01
        10         4        1.978826e-02
        11         4       -1.003047e+00
        12         4        5.530764e-01
        13         4        9.537096e-01
        14         4        7.659231e-02
        15         4       -1.163608e+00
        16         4        5.464612e-01
        17         4       -5.889675e-01
        18         4       -4.000597e-01
        19         4        3.790133e-01
        20         4        4.034553e-01
        21         4       -1.708947e+00
        22         4       -6.619586e-01
        23         4       -8.097277e-02
        24         4       -1.701045e-01
        25         4       -1.403547e+00
        26         4       -2.689002e-01
        27         4       -3.169390e-01
        28         4       -7.686772e-01
        29         4        2.464593e+00
        30         4        9.190124e-01
        31         4        3.978645e-01
        32         4       -1.645487e+00
        33         4       -5.333924e-01
        34         4        9.443894e-01
        35         4        9.640872e-01
        36         4        5.426805e-01
        37         4       -1.934062e+00
        38         4       -5.784777e-01
        39         4       -5.136904e-01
        40         4       -1.123157e+00
        41         4        2.747092e-01
        42         4       -4.695765e-01
        43         4       -8.652774e-01
        44         4        8.289297e-01
        45         4       -1.364180e+00
        46         4        6.287471e-02
        47         4       -6.205820e-01
        48         4        3.300908e-01
        49         4        4.168107e-01
        50         4        1.187077e+00
        51         4        7.049688e-01
        52         4       -1.671117e+00
        53         4       -1.570200e-01
        54         4       -7.969290e-01
        55         4        1.235077e-01
        56         4        1.373788e+00
        57         4        6.914957e-01
        58         4        1.293281e+00
        59         4       -1.898562e-01
        60         4        8.320041e-01
        61         4       -2.349794e-01
        62         4       -1.030438e+00
        63         4       -2.169426e-01
        64         4       -2.074089e+00
        65         4       -3.020879e-01
        66         4       -2.205933e-01
        67         4        2.053893e+00
        68         4       -3.883288e-01
        69         4        6.016518e-01
        70         4        5.798984e-01
        71         4        3.299075e-01
        72         4        4.993849e-01
        73         4        4.565670e-01
        74         4       -1.066292e-01
        75         4       -1.146205e+00
        76         4       -1.027506e+00
        77         4        7.290032e-01
        78         4        2.104905e+00
        79         4        4.362262e-01
        80         4        1.875645e+00
        81         4        3.632840e-01
        82         4       -8.753479e-01
        83         4       -5.484773e-01
        84         4        2.403463e+00
        85         4        6.234701e-01
        86         4        2.494387e+00
        87         4        5.030895e-02
        88         4       -1.073345e-01
        89         4       -5.715129e-01
        90         4        5.086769e-01
        91         4       -1.253626e+00
        92         4       -6.856669e-01
        93         4       -7.825192e-02
        94         4        2.110611e+00
        95         4       -5.105266e-02
        96         4        1.418883e+00
        97         4        1.641977e+00
        98         4       -5.243352e-01
        99         4       -4.396832e-01
       100         4       -6.528201e-01
         1         5        1.680748e+00
         2         5        4.350524e-01
         3         5        1.466625e+00
         4         5       -1.230241e+00
         5         5        5.428486e-01
         6         5        1.003563e-01
         7         5       -1.018685e-01
         8         5        2.410619e-01
         9         5       -5.773203e-01
        10         5        6.600008e-01
        11         5        1.300374e+00
        12         5        1.549929e-01
        13         5        9.669533e-01
        14         5        5.535284e-01
        15         5        7.159130e-01
        16         5       -2.149033e-01
        17         5       -1.312839e+00
        18         5       -6.617208e-01
        19         5        1.339993e+00
        20         5       -1.261243e+00
        21         5       -5.680296e-01
        22         5       -5.077043e-01
        23         5       -9.751401e-01
        24         5       -2.865025e-01
        25         5        5.959836e-02
        26         5        6.629874e-01
        27         5        1.542813e-01
        28         5       -2.472313e-01
        29         5       -9.943593e-01
        30         5        8.352218e-01
        31         5       -7.836821e-01
        32         5       -7.893292e-01
        33         5       -1.080372e+00
        34         5       -2.602426e-02
        35         5        1.593796e-01
        36         5        4.186911e-03
        37         5        4.778988e-01
        38         5       -3.809504e-01
        39         5       -6.685893e-01
        40         5       -2.678721e-01
        41         5        5.373074e-01
        42         5        3.870253e-01
        43         5       -1.231223e+00
        44         5       -5.069917e-01
        45         5        4.571969e-01
        46         5       -4.539265e-01
        47         5        2.341203e-01
        48         5       -4.414969e-01
        49         5        4.978397e-01
        50         5        4.655492e-01
        51         5       -4.626698e-01
        52         5       -1.199274e+00
        53         5        7.134502e-01
        54         5        9.754966e-02
        55         5       -2.525960e-01
        56         5       -5.716769e-01
        57         5        5.883956e-02
        58         5       -4.895118e-01
        59         5       -4.465692e-01
        60         5       -1.257271e+00
        61         5       -1.286199e+00
        62         5       -2.224018e-02
        63         5        2.033169e+00
        64         5        3.154355e-01
        65         5       -7.896491e-01
        66         5       -1.148230e+00
        67         5       -2.522958e-01
        68         5        2.491897e+00
        69         5        1.079789e+00
        70         5       -2.051792e+00
        71         5       -7.108809e-01
        72         5        1.224580e+00
        73         5        2.047997e-01
        74         5        5.624516e-01
        75         5        1.536214e+00
        76         5        4.790460e-01
        77         5        2.393974e-01
        78         5       -9.353975e-01
        79         5        4.485887e-01
        80         5        2.223453e+00
        81         5       -5.094587e-01
        82         5       -7.990613e-01
        83         5        1.323102e+00
        84         5        1.161055e+00
        85         5        7.910020e-01
        86         5        1.425679e+00
        87         5        7.035151e-01
        88         5       -1.978368e-01
        89         5       -2.552591e+00
        90         5        4.125425e-01
        91         5       -1.042162e+00
        92         5        9.346773e-02
        93         5        2.088706e-01
        94         5        5.925523e-01
        95         5        7.722095e-01
        96         5       -8.466163e-01
        97         5       -7.340108e-02
        98         5        1.399679e+00
        99         5        1.591853e-01
       100         5        6.816778e-01
;

param theta:=
    1       -2.866692e-01
    2       -1.091122e+00
    3       -8.825299e-01
    4       -1.031999e+00
    5       -2.514533e-01
;
param X_true:=
    1       -3.368044e+00
    2        1.349621e+00
    3        3.268571e-01
    4       -2.188399e+00
    5       -7.737575e-01
    6        6.921503e-01
    7       -2.504547e+00
    8        2.030586e-01
    9        4.293374e-01
   10       -1.573204e-01
   11        1.377683e+00
   12       -2.951436e+00
   13       -3.209007e+00
   14       -6.201467e-01
   15        2.073027e+00
   16        9.449790e-01
   17        1.292828e+00
   18       -2.629769e+00
   19       -4.119851e-01
   20        7.729302e-01
   21        1.236673e+00
   22       -1.135919e+00
   23        2.761367e+00
   24        4.218265e-01
   25        3.182249e+00
   26        1.346962e+00
   27       -4.946270e-01
   28        2.067229e+00
   29       -3.991899e+00
   30       -3.900265e-01
   31       -1.391158e+00
   32        1.721896e-01
   33        1.959893e+00
   34       -5.515375e-01
   35       -4.086079e+00
   36       -3.529062e+00
   37        3.991447e+00
   38        9.047037e-01
   39        8.771756e-01
   40        2.353370e+00
   41        6.789158e-01
   42        1.607112e+00
   43        1.181942e+00
   44        1.825334e+00
   45        3.145200e+00
   46        8.774376e-01
   47        8.849431e-01
   48        1.568666e+00
   49        2.838589e+00
   50       -4.217790e+00
   51       -1.308592e+00
   52        2.045834e+00
   53        1.020221e+00
   54        1.163191e-01
   55        2.256764e-01
   56       -9.915862e-01
   57       -2.452088e-01
   58        1.849585e+00
   59       -9.217023e-01
   60        2.309126e+00
   61        9.522790e-01
   62        1.373573e+00
   63       -5.052474e-01
   64        9.202108e-01
   65        3.300845e+00
   66        7.500555e-01
   67       -1.261257e+00
   68        9.489436e-01
   69       -1.949821e+00
   70        2.792621e-01
   71       -3.395443e+00
   72       -4.386042e-01
   73       -1.026378e+00
   74       -7.681347e-01
   75       -3.585026e-01
   76        1.742376e+00
   77       -2.940662e-01
   78       -3.159368e+00
   79        8.906709e-01
   80       -3.620409e+00
   81        7.816560e-01
   82        1.473084e+00
   83       -1.106365e-01
   84       -4.997760e+00
   85        9.220296e-01
   86       -2.643680e+00
   87       -1.583223e-01
   88        3.917178e-03
   89        1.369088e+00
   90       -6.080975e-01
   91        1.817687e+00
   92        1.126579e+00
   93       -3.020281e-01
   94       -3.586588e+00
   95       -1.038252e+00
   96       -3.045872e+00
   97       -2.484714e+00
   98        1.589655e-01
   99        1.754986e+00
  100        1.281430e+00
;
param X:=
    1        9.116440e-01
    2        1.952412e+00
    3       -5.011692e-01
    4       -2.188399e+00
    5        2.681183e-01
    6        6.921503e-01
    7       -2.504547e+00
    8       -3.839965e-01
    9        2.655376e-01
   10       -1.573204e-01
   11        1.377683e+00
   12        3.174276e-02
   13       -2.226644e+00
   14       -3.363344e-01
   15        7.261544e-01
   16        5.792024e-01
   17        1.265858e+00
   18        1.050695e+00
   19       -4.119851e-01
   20       -2.275500e+00
   21       -3.198539e-01
   22       -1.135919e+00
   23       -4.134690e-01
   24        4.218265e-01
   25        3.182249e+00
   26        1.346962e+00
   27       -3.595990e-01
   28       -1.580664e+00
   29        5.361544e-01
   30        1.815311e+00
   31       -1.391158e+00
   32       -2.689845e-01
   33        1.959893e+00
   34       -4.628490e-01
   35       -4.086079e+00
   36        3.796364e-01
   37        9.225224e-01
   38        2.030591e-01
   39        1.595316e-01
   40        2.183478e+00
   41        2.181972e-01
   42       -1.563335e+00
   43        8.193617e-01
   44       -1.175355e+00
   45       -1.018945e+00
   46       -8.132461e-01
   47       -6.735478e-01
   48        1.568666e+00
   49        2.021759e+00
   50       -3.207017e-01
   51        1.426064e+00
   52       -9.167438e-02
   53        4.219320e-01
   54       -7.589020e-01
   55        2.256764e-01
   56       -5.008930e-01
   57       -2.452088e-01
   58       -6.526007e-01
   59       -5.824843e-01
   60        2.611798e-01
   61       -3.385438e+00
   62        2.649718e+00
   63       -1.518847e+00
   64       -4.501520e-01
   65        3.300845e+00
   66        1.044701e-01
   67        1.594177e+00
   68        9.489436e-01
   69        5.160352e-02
   70       -1.117059e+00
   71        3.009594e-01
   72        8.900392e-01
   73        4.595516e-01
   74        9.395154e-02
   75        1.587337e+00
   76        1.742376e+00
   77       -1.410379e+00
   78       -3.008907e-01
   79       -9.239703e-01
   80        4.197771e-01
   81       -1.000401e+00
   82       -3.440401e-02
   83       -9.092599e-01
   84        2.051120e+00
   85        1.205588e+00
   86       -4.080492e-01
   87       -1.583223e-01
   88        1.603120e+00
   89       -1.412829e-01
   90       -7.793272e-01
   91       -7.154207e-01
   92        1.126579e+00
   93       -3.426556e-01
   94       -1.716006e-01
   95       -1.223088e+00
   96       -9.893010e-02
   97       -4.135133e-01
   98       -1.087623e+00
   99        1.754986e+00
  100        1.384080e-01
;
param outliervec:=
    1    1
    2    1
    3    1
    4    0
    5    1
    6    0
    7    0
    8    1
    9    1
   10    0
   11    0
   12    1
   13    1
   14    1
   15    1
   16    1
   17    1
   18    1
   19    0
   20    1
   21    1
   22    0
   23    1
   24    0
   25    0
   26    0
   27    1
   28    1
   29    1
   30    1
   31    0
   32    1
   33    0
   34    1
   35    0
   36    1
   37    1
   38    1
   39    1
   40    1
   41    1
   42    1
   43    1
   44    1
   45    1
   46    1
   47    1
   48    0
   49    1
   50    1
   51    1
   52    1
   53    1
   54    1
   55    0
   56    1
   57    0
   58    1
   59    1
   60    1
   61    1
   62    1
   63    1
   64    1
   65    0
   66    1
   67    1
   68    0
   69    1
   70    1
   71    1
   72    1
   73    1
   74    1
   75    1
   76    0
   77    1
   78    1
   79    1
   80    1
   81    1
   82    1
   83    1
   84    1
   85    1
   86    1
   87    0
   88    1
   89    1
   90    1
   91    1
   92    0
   93    1
   94    1
   95    1
   96    1
   97    1
   98    1
   99    0
  100    1
;